
Gurobi 9.1.2 (win64, Java) logging started Sat Nov 13 11:08:42 2021

Academic license - for non-commercial use only - expires 2022-10-30
Gurobi Optimizer version 9.1.2 build v9.1.2rc0 (win64)
Thread count: 6 physical cores, 12 logical processors, using up to 12 threads
Optimize a model with 60 rows, 800 columns and 1600 nonzeros
Model fingerprint: 0xc7d4c640
Variable types: 0 continuous, 800 integer (800 binary)
Coefficient statistics:
  Matrix range     [1e+00, 1e+03]
  Objective range  [2e+02, 9e+02]
  Bounds range     [1e+00, 1e+00]
  RHS range        [1e+00, 9e+02]
Found heuristic solution: objective 10030.000000
Presolve removed 11 rows and 415 columns
Presolve time: 0.00s
Presolved: 49 rows, 385 columns, 769 nonzeros
Variable types: 0 continuous, 385 integer (385 binary)
Presolve removed 0 rows and 6 columns
Presolved: 49 rows, 379 columns, 757 nonzeros


Root relaxation: objective 1.263970e+04, 236 iterations, 0.00 seconds

    Nodes    |    Current Node    |     Objective Bounds      |     Work
 Expl Unexpl |  Obj  Depth IntInf | Incumbent    BestBd   Gap | It/Node Time

     0     0 12639.6996    0   26 10030.0000 12639.6996  26.0%     -    0s
H    0     0                    11192.000000 12639.6996  12.9%     -    0s
H    0     0                    11457.000000 12639.6996  10.3%     -    0s
H    0     0                    11757.000000 12639.6996  7.51%     -    0s
     0     0 12599.5979    0   38 11757.0000 12599.5979  7.17%     -    0s
H    0     0                    12233.000000 12599.5979  3.00%     -    0s
     0     0 12517.1496    0   37 12233.0000 12517.1496  2.32%     -    0s
     0     0 12516.8743    0   39 12233.0000 12516.8743  2.32%     -    0s
H    0     0                    12235.000000 12516.8743  2.30%     -    0s
     0     0 12499.8785    0   52 12235.0000 12499.8785  2.16%     -    0s
     0     0 12449.0331    0   41 12235.0000 12449.0331  1.75%     -    0s
     0     0 12447.8708    0   50 12235.0000 12447.8708  1.74%     -    0s
     0     0 12437.5711    0   49 12235.0000 12437.5711  1.66%     -    0s
H    0     0                    12339.000000 12437.5711  0.80%     -    0s
     0     0 12437.5675    0   50 12339.0000 12437.5675  0.80%     -    0s
     0     0 12428.7260    0   47 12339.0000 12428.7260  0.73%     -    0s
     0     0 12423.7204    0   48 12339.0000 12423.7204  0.69%     -    0s
     0     0 12422.8698    0   50 12339.0000 12422.8698  0.68%     -    0s
     0     0 12422.6524    0   49 12339.0000 12422.6524  0.68%     -    0s
     0     0 12413.3228    0   64 12339.0000 12413.3228  0.60%     -    0s
H    0     0                    12405.000000 12413.3228  0.07%     -    0s
     0     0 12413.1727    0   71 12405.0000 12413.1727  0.07%     -    0s
     0     0 12408.8620    0   44 12405.0000 12408.8620  0.03%     -    0s

Explored 1 nodes (1086 simplex iterations) in 0.14 seconds
Thread count was 12 (of 12 available processors)

Solution count 8: 12405 12339 12235 ... 10030

Optimal solution found (tolerance 1.00e-12)
Best objective 1.240500000000e+04, best bound 1.240500000000e+04, gap 0.0000%
